c WARNING: for repeatability, setting FPU to use double precision
d VARIABLES            226086       
d CONSTRAINTS          838272       
c ============================[ Problem Statistics ]=============================
c |                                                                             |
c |  Number of variables:        226086                                         |
c |  Number of clauses:          838272                                         |
c |  Parse time:                   0.15 s                                       |
c |                                                                             |
c ============================[ Search Statistics ]==============================
c | Conflicts |          ORIGINAL         |          LEARNT          | Progress |
c |           |    Vars  Clauses Literals |    Limit  Clauses Lit/Cl |          |
c ===============================================================================
c |       100 |  187451   738642  1852121 |   270835      100      9 | 17.089 % |
c |       250 |  187451   738642  1852121 |   297918      250      7 | 17.089 % |
c |       475 |  187451   738642  1852121 |   327710      475      6 | 17.089 % |
c |       812 |  187451   738642  1852121 |   360481      812     21 | 17.089 % |
c |      1318 |  187451   738642  1852121 |   396530     1318     22 | 17.089 % |
c |      2077 |  187451   738642  1852121 |   436183     2077     39 | 17.089 % |
c |      3216 |  187451   738642  1852121 |   479801     3216     43 | 17.089 % |
c |      4924 |  187451   738642  1852121 |   527781     4924     46 | 17.089 % |
c |      7486 |  187451   738642  1852121 |   580559     7486     55 | 17.089 % |
c |     11330 |  187451   738642  1852121 |   638615    11330     64 | 17.089 % |
c |     17096 |  187451   738642  1852121 |   702477    17096     62 | 17.089 % |
c |     25745 |  187451   738642  1852121 |   772725    25745     65 | 17.089 % |
c |     38719 |  187451   738642  1852121 |   849997    38719     60 | 17.089 % |
c |     58180 |  187451   738642  1852121 |   934997    58180     55 | 17.089 % |
c |     87372 |  187451   738642  1852121 |  1028496    87372     50 | 17.089 % |
c |    131161 |  187451   738642  1852121 |  1131346   131161     44 | 17.089 % |
c ===============================================================================
c restarts              : 368
c conflicts             : 133518         (3669 /sec)
c decisions             : 272828         (0.00 % random) (7498 /sec)
c propagations          : 188319733      (5175571 /sec)
c conflict literals     : 5889518        (56.70 % deleted)
d RESTARTS             368
d FAILURES             133518       
d NODES                272828       
d BACKTRACKS           272828       
d PROPAGATIONS         188319733    
d NOGOODSIZE           44.11 
d MEMORY               107.00 
d TIME                 36.3863 

s UNSATISFIABLE
